WARNING: for repeatability, setting FPU to use double precision
============================[ Problem Statistics ]=============================
|                                                                             |
|  Number of variables:            50                                         |
|  Number of clauses:             218                                         |
|  Parse time:                   0.00 s                                       |
|                                                                             |
============================[ Search Statistics ]==============================
| Conflicts |          ORIGINAL         |          LEARNT          | Progress |
|           |    Vars  Clauses Literals |    Limit  Clauses Lit/Cl |          |
===============================================================================
===============================================================================
restarts              : 1
conflicts             : 20             (14420 /sec)
decisions             : 31             (0.00 % random) (22350 /sec)
propagations          : 314            (226388 /sec)
conflict literals     : 89             (14.42 % deleted)
Memory used           : 20.00 MB
CPU time              : 0.001387 s

SATISFIABLE
